(set-logic QF_SLIA)
(declare-fun var0 () String)
(assert (str.in_re var0 (re.++ ((_ re.loop 10 395) (re.++ (re.union (str.to_re "+y") (re.union (str.to_re "NV`") (re.union (str.to_re "*e0") (str.to_re "ee")))) (re.++ (re.union (str.to_re "X") (re.union (str.to_re "Y_") (re.union (str.to_re "c!") (str.to_re "`>2")))) (re.++ (re.union (str.to_re "-Y,") (re.union (str.to_re "q") (re.union (str.to_re "o") (str.to_re "Q*k")))) (re.union (str.to_re "]&A") (re.union (str.to_re "pwC") (re.union (str.to_re "4") (str.to_re "'6")))))))) (re.++ ((_ re.loop 20 621) (re.++ (re.union (str.to_re "S0u") (re.union (str.to_re "q0R") (re.union (str.to_re "*]\u0022") (str.to_re "D")))) (re.++ (re.union (str.to_re "dJZ") (re.union (str.to_re "4") (re.union (str.to_re "oh=") (str.to_re "5K")))) (re.++ (re.union (str.to_re "|") (re.union (str.to_re "5g") (re.union (str.to_re "Qyo") (str.to_re "Il")))) (re.union (str.to_re "3<[") (re.union (str.to_re "fH_") (re.union (str.to_re "zR") (str.to_re "km")))))))) (re.++ ((_ re.loop 6 640) (re.++ (re.union (str.to_re "(") (re.union (str.to_re "G0K") (re.union (str.to_re "k") (str.to_re "Md")))) (re.++ (re.union (str.to_re "s^_") (re.union (str.to_re "=") (re.union (str.to_re "/u") (str.to_re "Eg")))) (re.++ (re.union (str.to_re "^c") (re.union (str.to_re "/9") (re.union (str.to_re "M1H") (str.to_re "[Ov")))) (re.union (str.to_re "{") (re.union (str.to_re "7+") (re.union (str.to_re "v") (str.to_re "F7j")))))))) ((_ re.loop 2 762) (re.++ (re.union (str.to_re "f\u0022l") (re.union (str.to_re "6/") (re.union (str.to_re "Tzj") (str.to_re "4/")))) (re.++ (re.union (str.to_re "E*y") (re.union (str.to_re "R*x") (re.union (str.to_re "j") (str.to_re "e")))) (re.++ (re.union (str.to_re "E") (re.union (str.to_re "/") (re.union (str.to_re "q") (str.to_re "v>")))) (re.union (str.to_re "q7") (re.union (str.to_re "K") (re.union (str.to_re "r1") (str.to_re "=I")))))))))))))
(assert (not (str.in_re var0 (re.++ ((_ re.loop 2 829) (re.++ (re.union (str.to_re "(") (re.union (str.to_re "/+") (re.union (str.to_re "F") (str.to_re "-p:")))) (re.++ (re.union (str.to_re "7") (re.union (str.to_re "}") (re.union (str.to_re "#") (str.to_re "(E(")))) (re.++ (re.union (str.to_re "EL;") (re.union (str.to_re "hX") (re.union (str.to_re ")") (str.to_re "(X")))) (re.union (str.to_re "C") (re.union (str.to_re "9") (re.union (str.to_re "3V#") (str.to_re "AK")))))))) (re.++ ((_ re.loop 5 377) (re.++ (re.union (str.to_re "||") (re.union (str.to_re "`1") (re.union (str.to_re "5_") (str.to_re "k8z")))) (re.++ (re.union (str.to_re "Q") (re.union (str.to_re "CJ(") (re.union (str.to_re "o") (str.to_re "/")))) (re.++ (re.union (str.to_re "HhZ") (re.union (str.to_re "x5") (re.union (str.to_re "$;") (str.to_re "L!")))) (re.union (str.to_re "@=") (re.union (str.to_re "3") (re.union (str.to_re "<") (str.to_re "R")))))))) (re.++ ((_ re.loop 5 48) (re.++ (re.union (str.to_re "MnX") (re.union (str.to_re "~") (re.union (str.to_re "9") (str.to_re "6p)")))) (re.++ (re.union (str.to_re "}") (re.union (str.to_re "V") (re.union (str.to_re "s") (str.to_re "u")))) (re.++ (re.union (str.to_re "j") (re.union (str.to_re "/j") (re.union (str.to_re "\u0022D0") (str.to_re "ByG")))) (re.union (str.to_re "_") (re.union (str.to_re "^X") (re.union (str.to_re "IJ") (str.to_re "8?u")))))))) ((_ re.loop 8 634) (re.++ (re.union (str.to_re "A") (re.union (str.to_re "W") (re.union (str.to_re "qwa") (str.to_re "~,o")))) (re.++ (re.union (str.to_re ">") (re.union (str.to_re "HB") (re.union (str.to_re "1s") (str.to_re "($")))) (re.++ (re.union (str.to_re "\\B.") (re.union (str.to_re "0") (re.union (str.to_re "e") (str.to_re "#S^")))) (re.union (str.to_re "-mY") (re.union (str.to_re "d4") (re.union (str.to_re "2/") (str.to_re "BAC"))))))))))))))
(assert (not (str.in_re var0 (re.++ (re.* re.allchar) (re.++ (re.union (str.to_re "<") (re.union (str.to_re ">") (re.union (str.to_re "'") (re.union (str.to_re "\u0022") (str.to_re "&"))))) (re.* re.allchar))))))
(assert (<= 50 (str.len var0)))
(check-sat)
(get-model)
